NAME : OMNETRUN
COMMENT : 524.61
TYPE : CVRP
DIMENSION : 21
EDGE_WEIGHT_TYPE : EUC_2D
CAPACITY : 21
NODE_COORD_SECTION
1 0.107093 -0.77924
2 89.7278 -3109.56
3 51.2332 -4850.65
4 156.232 -5258.52
5 138.098 -5675.17
6 278.364 -783.608
7 337.459 -1380.32
8 335.958 -1977.25
9 341.93 -2568.25
10 348.357 -3759.39
11 382.42 -4711.66
12 611.992 -5.50811
13 525.528 -458.248
14 681.142 -995.028
15 663.674 -2166.77
16 527.553 -2935.09
17 556.26 -3311.79
18 600.727 -4325.24
19 518.318 -5087.19
20 586.482 -5504.91
21 951.004 -691.761
DEMAND_SECTION
1 0
2 1
3 1
4 1
5 1
6 1
7 1
8 1
9 1
10 1
11 1
12 1
13 1
14 1
15 1
16 1
17 1
18 1
19 1
20 1
21 1
DEPOT_SECTION
1
-1
EOF
